c A SAT instance generated from a 3-CNF formula that had 18 clauses and 9 variables
p cnf 9 18
3 -9 2 0
-1 -2 4 0
5 -8 2 0
2 1 4 0
3 7 6 0
2 6 -4 0
6 2 -4 0
-4 7 -9 0
-8 1 5 0
1 -5 3 0
2 9 -8 0
-2 -9 -3 0
3 5 8 0
1 -3 5 0
8 5 -6 0
1 -4 2 0
3 2 7 0
2 8 -1 0
